Set parameter TokenServer to value "hpc-licenses.hpcc.usc.edu"
Set parameter TimeLimit to value 3600
Gurobi Optimizer version 9.5.1 build v9.5.1rc2 (linux64)
Thread count: 20 physical cores, 20 logical processors, using up to 20 threads
Optimize a model with 6007 rows, 4529 columns and 24534 nonzeros
Model fingerprint: 0xd9ef3303
Variable types: 4506 continuous, 23 integer (23 binary)
Coefficient statistics:
  Matrix range     [1e+00, 1e+00]
  Objective range  [3e-03, 1e+00]
  Bounds range     [1e+00, 1e+00]
  RHS range        [1e+00, 8e+01]
Found heuristic solution: objective 219.7774108
Presolve removed 1520 rows and 1515 columns
Presolve time: 0.05s
Presolved: 4487 rows, 3014 columns, 21975 nonzeros
Variable types: 2994 continuous, 20 integer (20 binary)

Root relaxation: objective 2.297975e+02, 2050 iterations, 0.08 seconds (0.10 work units)

    Nodes    |    Current Node    |     Objective Bounds      |     Work
 Expl Unexpl |  Obj  Depth IntInf | Incumbent    BestBd   Gap | It/Node Time

     0     0  229.79753    0    2  219.77741  229.79753  4.56%     -    0s
H    0     0                     229.0884032  229.79753  0.31%     -    0s
     0     0  229.67026    0    5  229.08840  229.67026  0.25%     -    0s
     0     0  229.67026    0    2  229.08840  229.67026  0.25%     -    0s
     0     0  229.67026    0    5  229.08840  229.67026  0.25%     -    0s
     0     0  229.63666    0    5  229.08840  229.63666  0.24%     -    0s
     0     0  229.56057    0    4  229.08840  229.56057  0.21%     -    0s

Cutting planes:
  Gomory: 1
  MIR: 702
  RLT: 1

Explored 1 nodes (3801 simplex iterations) in 1.05 seconds (0.50 work units)
Thread count was 20 (of 20 available processors)

Solution count 2: 229.088 219.777 

Optimal solution found (tolerance 1.00e-04)
Best objective 2.290884032309e+02, best bound 2.290986469758e+02, gap 0.0045%



#########node  1
V1.8
#########node  2
0.22727272727272727,0.7727272727272727
#########node  3
1.0,0.0


Total Solving Time 1.437208652496338
obj value 229.0884032309234
Policy Regret train (Sum) 6.574261261987341
Best Treatment Found train (%) 61.8
treatment classification acc train (%) 37.6
Policy Regret test (Sum) 108.72835269107836
Best Treatment Found test (%) 63.12
treatment classification acc test (%) 39.32
